(set-logic QF_SLIA)
(declare-fun var0 () String)
(assert (not (str.in_re var0 (re.++ ((_ re.loop 6 314) (re.++ (re.union (str.to_re "$M^") (re.union (str.to_re "&fR") (re.union (str.to_re "l>F") (str.to_re "XS3")))) (re.++ (re.union (str.to_re "S") (re.union (str.to_re "nV!") (re.union (str.to_re "Rc`") (str.to_re "OQ")))) (re.++ (re.union (str.to_re "_`") (re.union (str.to_re "d'") (re.union (str.to_re ":") (str.to_re "X")))) (re.union (str.to_re "[)") (re.union (str.to_re "Y") (re.union (str.to_re "I2w") (str.to_re "fE")))))))) (re.++ ((_ re.loop 0 250) (re.++ (re.union (str.to_re "G<o") (re.union (str.to_re "l") (re.union (str.to_re "~") (str.to_re "Ml6")))) (re.++ (re.union (str.to_re "-L") (re.union (str.to_re "AN") (re.union (str.to_re "8${") (str.to_re "lTm")))) (re.++ (re.union (str.to_re "&") (re.union (str.to_re "K12") (re.union (str.to_re "rZ") (str.to_re "/")))) (re.union (str.to_re "Pu~") (re.union (str.to_re "y") (re.union (str.to_re "K") (str.to_re "b")))))))) (re.++ ((_ re.loop 16 524) (re.++ (re.union (str.to_re "[6h") (re.union (str.to_re ".E") (re.union (str.to_re "1T") (str.to_re "3_")))) (re.++ (re.union (str.to_re "W-") (re.union (str.to_re "x") (re.union (str.to_re "8") (str.to_re "XfQ")))) (re.++ (re.union (str.to_re "w&9") (re.union (str.to_re "I^") (re.union (str.to_re "/") (str.to_re "Yvs")))) (re.union (str.to_re "-#") (re.union (str.to_re ">[/") (re.union (str.to_re "g") (str.to_re "RU")))))))) ((_ re.loop 10 76) (re.++ (re.union (str.to_re "k:5") (re.union (str.to_re ")s") (re.union (str.to_re "v") (str.to_re "x3")))) (re.++ (re.union (str.to_re "5M") (re.union (str.to_re "N~l") (re.union (str.to_re "j~8") (str.to_re "Q*%")))) (re.++ (re.union (str.to_re "Q") (re.union (str.to_re "L4<") (re.union (str.to_re "~M") (str.to_re "Za")))) (re.union (str.to_re "0;") (re.union (str.to_re "<I") (re.union (str.to_re "N") (str.to_re "]"))))))))))))))
(assert (not (str.in_re var0 (re.++ ((_ re.loop 4 640) (re.++ (re.union (str.to_re "`9") (re.union (str.to_re "q") (re.union (str.to_re "A") (str.to_re "d,&")))) (re.++ (re.union (str.to_re "g") (re.union (str.to_re "{<") (re.union (str.to_re "ov\\") (str.to_re "'6")))) (re.++ (re.union (str.to_re "H") (re.union (str.to_re "a") (re.union (str.to_re "r") (str.to_re "I")))) (re.union (str.to_re "L/") (re.union (str.to_re "ES") (re.union (str.to_re "Wy") (str.to_re "mg")))))))) (re.++ ((_ re.loop 9 132) (re.++ (re.union (str.to_re "R") (re.union (str.to_re "#") (re.union (str.to_re "oc") (str.to_re "5")))) (re.++ (re.union (str.to_re "wO.") (re.union (str.to_re "O") (re.union (str.to_re "=E4") (str.to_re "|Ac")))) (re.++ (re.union (str.to_re ",t") (re.union (str.to_re "6g") (re.union (str.to_re "M") (str.to_re "_oi")))) (re.union (str.to_re "{") (re.union (str.to_re "|j") (re.union (str.to_re "U") (str.to_re "]va")))))))) (re.++ ((_ re.loop 14 664) (re.++ (re.union (str.to_re "@") (re.union (str.to_re "O;") (re.union (str.to_re "g(") (str.to_re "/{")))) (re.++ (re.union (str.to_re ">Q5") (re.union (str.to_re "g=") (re.union (str.to_re "ZMD") (str.to_re "|(")))) (re.++ (re.union (str.to_re "Iq") (re.union (str.to_re "Z") (re.union (str.to_re "bLS") (str.to_re "6")))) (re.union (str.to_re ",E<") (re.union (str.to_re "a") (re.union (str.to_re "jB") (str.to_re "71S")))))))) ((_ re.loop 13 324) (re.++ (re.union (str.to_re "E=") (re.union (str.to_re "-c.") (re.union (str.to_re "^<{") (str.to_re "!")))) (re.++ (re.union (str.to_re "R") (re.union (str.to_re "*2x") (re.union (str.to_re "{9[") (str.to_re "*")))) (re.++ (re.union (str.to_re "-") (re.union (str.to_re "_B") (re.union (str.to_re "8") (str.to_re "2")))) (re.union (str.to_re "c7W") (re.union (str.to_re "5F") (re.union (str.to_re "vZz") (str.to_re "1U;"))))))))))))))
(assert (not (str.in_re var0 (re.++ (re.* re.allchar) (re.++ (re.union (str.to_re "<") (re.union (str.to_re ">") (re.union (str.to_re "'") (re.union (str.to_re "\u0022") (str.to_re "&"))))) (re.* re.allchar))))))
(assert (<= 50 (str.len var0)))
(check-sat)
(get-model)
